problems/csplib-prob013/ProgressivePartyProblem-models/noch/O2/lingeling/model_3_1-Ian05-solution000001.solution
language Essence 1.3

letting hosts be {1, 3, 6, 8, 9}
letting sched be
        {function(1 --> 1, 2 --> 1, 3 --> 3, 4 --> 9, 5 --> 3, 6 --> 6, 7 --> 6, 8 --> 8, 9 --> 9),
         function(1 --> 1, 2 --> 3, 3 --> 3, 4 --> 8, 5 --> 8, 6 --> 6, 7 --> 9, 8 --> 8, 9 --> 9),
         function(1 --> 1, 2 --> 6, 3 --> 3, 4 --> 6, 5 --> 1, 6 --> 6, 7 --> 8, 8 --> 8, 9 --> 9),
         function(1 --> 1, 2 --> 8, 3 --> 3, 4 --> 3, 5 --> 9, 6 --> 6, 7 --> 1, 8 --> 8, 9 --> 9),
         function(1 --> 1, 2 --> 9, 3 --> 3, 4 --> 1, 5 --> 6, 6 --> 6, 7 --> 3, 8 --> 8, 9 --> 9)}
